HFSDDW
15	12	4
0	47	1	83	2	36	3	33
0	27	1	63	2	4	3	65
0	98	1	84	2	88	3	89
0	94	1	8	2	66	3	3
0	78	1	34	2	86	3	58
0	46	1	55	2	9	3	4
0	78	1	78	2	34	3	78
0	22	1	3	2	60	3	42
0	72	1	98	2	57	3	26
0	92	1	3	2	37	3	89
0	88	1	49	2	80	3	70
0	13	1	8	2	78	3	13
0	70	1	46	2	46	3	26
0	12	1	60	2	97	3	91
0	75	1	33	2	55	3	49
LBCmax: 392
RELDUE
-1	230	9	7
-1	216	4	9
-1	289	7	9
-1	494	2	1
-1	215	7	6
-1	302	4	3
-1	185	2	1
-1	493	6	5
-1	315	6	5
-1	276	8	6
-1	157	6	1
-1	417	8	5
-1	501	6	9
-1	501	8	6
-1	392	3	4
DDW
214	246
210	222
283	295
445	543
213	217
296	308
178	192
468	518
287	343
262	290
155	159
409	425
466	536
481	521
353	431
